(set-info :min-time 0.178995873)
; Start decls (12)
(declare-fun b10 () (_ FloatingPoint 11 53))
(declare-fun b12 () (_ FloatingPoint 11 53))
(declare-fun b16 () (_ FloatingPoint 11 53))
(declare-fun b20 () (_ FloatingPoint 11 53))
(declare-fun b22 () (_ FloatingPoint 11 53))
(declare-fun b23 () (_ FloatingPoint 11 53))
(declare-fun b25 () (_ FloatingPoint 11 53))
(declare-fun b28 () (_ FloatingPoint 11 53))
(declare-fun b32 () (_ FloatingPoint 11 53))
(declare-fun b35 () (_ FloatingPoint 11 53))
(declare-fun b42 () (_ FloatingPoint 11 53))
(declare-fun b45 () (_ FloatingPoint 11 53))
; End decls
; Start constraints (10)
(assert (fp.lt b12 (fp.add roundNearestTiesToEven b10 b16)))
(assert (fp.leq b10 b12))
(assert (fp.leq b20 b25))
(assert (fp.leq b28 b20))
(assert (fp.leq b10 b32))
(assert (fp.leq b35 b10))
(assert (fp.leq b22 b32))
(assert (fp.leq b35 b22))
(assert (fp.leq b23 b42))
(assert (fp.leq b45 b23))
; End constraints
(check-sat)
